# Solution for model hydro
# Objective value = 4.7309999998099838e+03
bid_price_X_0_0_0 0
bid_price_X_0_0_1 0
bid_price_X_0_1_0 0
bid_price_X_0_1_1 0
bid_price_X_0_2_0 0
bid_price_X_0_2_1 0
bid_price_X_0_3_0 0
bid_price_X_0_3_1 0
bid_price_X_0_4_0 0
bid_price_X_0_4_1 0
bid_price_X_0_5_0 0
bid_price_X_0_5_1 0
bid_price_X_0_6_0 0
bid_price_X_0_6_1 0
bid_price_X_0_7_0 0
bid_price_X_0_7_1 0
bid_price_X_0_8_0 0
bid_price_X_0_8_1 0
bid_price_X_0_9_0 0
bid_price_X_0_9_1 0
bid_price_X_1_0_0 0
bid_price_X_1_0_1 0
bid_price_X_1_1_0 0
bid_price_X_1_1_1 0
bid_price_X_1_2_0 0
bid_price_X_1_2_1 0
bid_price_X_1_3_0 0
bid_price_X_1_3_1 0
bid_price_X_1_4_0 0
bid_price_X_1_4_1 0
bid_price_X_1_5_0 0
bid_price_X_1_5_1 0
bid_price_X_1_6_0 0
bid_price_X_1_6_1 0
bid_price_X_1_7_0 0
bid_price_X_1_7_1 0
bid_price_X_1_8_0 0
bid_price_X_1_8_1 0
bid_price_X_1_9_0 0
bid_price_X_1_9_1 0
bid_price_X_2_0_0 0
bid_price_X_2_0_1 0
bid_price_X_2_1_0 0
bid_price_X_2_1_1 0
bid_price_X_2_2_0 0
bid_price_X_2_2_1 0
bid_price_X_2_3_0 0
bid_price_X_2_3_1 0
bid_price_X_2_4_0 0
bid_price_X_2_4_1 0
bid_price_X_2_5_0 0
bid_price_X_2_5_1 0
bid_price_X_2_6_0 0
bid_price_X_2_6_1 0
bid_price_X_2_7_0 0
bid_price_X_2_7_1 0
bid_price_X_2_8_0 0
bid_price_X_2_8_1 0
bid_price_X_2_9_0 0
bid_price_X_2_9_1 0
production_quantity_X_0_0_0 1.9999999999873854e+01
production_quantity_X_0_0_1 4.4999999999531560e+01
production_quantity_X_0_0_2 3.5000000000071203e+01
production_quantity_X_0_1_0 1.9999999999873140e+01
production_quantity_X_0_1_1 4.4999999999485240e+01
production_quantity_X_0_1_2 3.4999999984957959e+01
production_quantity_X_0_2_0 1.9999999999826478e+01
production_quantity_X_0_2_1 4.4999999999098918e+01
production_quantity_X_0_2_2 1.0235287147230970e-09
production_quantity_X_0_3_0 1.9999999999873971e+01
production_quantity_X_0_3_1 4.4999999999537032e+01
production_quantity_X_0_3_2 3.4999999960937430e+01
production_quantity_X_0_4_0 1.9999999999874504e+01
production_quantity_X_0_4_1 4.4999999999525429e+01
production_quantity_X_0_4_2 3.4999999817745149e+01
production_quantity_X_0_5_0 1.9999999999843062e+01
production_quantity_X_0_5_1 4.4999999999223078e+01
production_quantity_X_0_5_2 1.2456374842565083e-09
production_quantity_X_0_6_0 1.9999999999874241e+01
production_quantity_X_0_6_1 4.4999999999536044e+01
production_quantity_X_0_6_2 3.4999999994558728e+01
production_quantity_X_0_7_0 1.9999999999874202e+01
production_quantity_X_0_7_1 4.4999999999533514e+01
production_quantity_X_0_7_2 3.4999999951386549e+01
production_quantity_X_0_8_0 1.9999999999855213e+01
production_quantity_X_0_8_1 4.4999999999095785e+01
production_quantity_X_0_8_2 1.7598150882802630e-09
production_quantity_X_0_9_0 1.9999999999855213e+01
production_quantity_X_0_9_1 4.4999999999095785e+01
production_quantity_X_0_9_2 1.7598150883213441e-09
production_quantity_X_1_0_0 1.9999999999852562e+01
production_quantity_X_1_0_1 4.4999999998470649e+01
production_quantity_X_1_0_2 5.4642584843435355e-09
production_quantity_X_1_1_0 1.9999999999870639e+01
production_quantity_X_1_1_1 4.4999999999349669e+01
production_quantity_X_1_1_2 1.0329060428307813e-08
production_quantity_X_1_2_0 1.9999999999856982e+01
production_quantity_X_1_2_1 4.4999999999205372e+01
production_quantity_X_1_2_2 9.2500870194129377e+00
production_quantity_X_1_3_0 1.9999999999852466e+01
production_quantity_X_1_3_1 4.4999999998478266e+01
production_quantity_X_1_3_2 5.4346005057863753e-09
production_quantity_X_1_4_0 1.9999999999873676e+01
production_quantity_X_1_4_1 4.4999999999438593e+01
production_quantity_X_1_4_2 1.7375678577436025e-08
production_quantity_X_1_5_0 1.9999999999860393e+01
production_quantity_X_1_5_1 4.4999999999495699e+01
production_quantity_X_1_5_2 3.0574779940444458e+01
production_quantity_X_1_6_0 1.9999999999852356e+01
production_quantity_X_1_6_1 4.4999999998481421e+01
production_quantity_X_1_6_2 5.4196715210013657e-09
production_quantity_X_1_7_0 1.9999999999873683e+01
production_quantity_X_1_7_1 4.4999999999442856e+01
production_quantity_X_1_7_2 1.3765843045221877e-08
production_quantity_X_1_8_0 1.9999999999856886e+01
production_quantity_X_1_8_1 4.4999999999493753e+01
production_quantity_X_1_8_2 3.1705488745357918e+01
production_quantity_X_1_9_0 1.9999999999856886e+01
production_quantity_X_1_9_1 4.4999999999493753e+01
production_quantity_X_1_9_2 3.1705488744533387e+01
production_quantity_X_2_0_0 1.9999999999797769e+01
production_quantity_X_2_0_1 9.1909574462525011e-09
production_quantity_X_2_0_2 4.3812683741504777e-10
production_quantity_X_2_1_0 1.9999999999859128e+01
production_quantity_X_2_1_1 4.4999999998708226e+01
production_quantity_X_2_1_2 3.3741752847596263e-09
production_quantity_X_2_2_0 1.9999999999858019e+01
production_quantity_X_2_2_1 4.4999999999419643e+01
production_quantity_X_2_2_2 2.5749912966281443e+01
production_quantity_X_2_3_0 1.9999999999797428e+01
production_quantity_X_2_3_1 8.4491936589829877e-09
production_quantity_X_2_3_2 4.3652244200122636e-10
production_quantity_X_2_4_0 1.9999999999864624e+01
production_quantity_X_2_4_1 4.4999999998706535e+01
production_quantity_X_2_4_2 7.0490107739592121e-09
production_quantity_X_2_5_0 1.9999999999859536e+01
production_quantity_X_2_5_1 4.4999999999512013e+01
production_quantity_X_2_5_2 1.9425220053138915e+01
production_quantity_X_2_6_0 1.9999999999797275e+01
production_quantity_X_2_6_1 8.1675244617359944e-09
production_quantity_X_2_6_2 4.3582175274701386e-10
production_quantity_X_2_7_0 1.9999999999863086e+01
production_quantity_X_2_7_1 4.4999999998221668e+01
production_quantity_X_2_7_2 5.2606411657444736e-09
production_quantity_X_2_8_0 1.9999999999863583e+01
production_quantity_X_2_8_1 4.4999999999521904e+01
production_quantity_X_2_8_2 3.3294511229884314e+01
production_quantity_X_2_9_0 1.9999999999863583e+01
production_quantity_X_2_9_1 4.4999999999521904e+01
production_quantity_X_2_9_2 3.3294511230709340e+01
storage_volume_X_X_0_0 1.1000000000052339e+02
storage_volume_X_X_0_1 1.1000000001568370e+02
storage_volume_X_X_0_2 1.4500000000005107e+02
storage_volume_X_X_0_3 1.1500000003965155e+02
storage_volume_X_X_0_4 1.1500000018285495e+02
storage_volume_X_X_0_5 1.4999999999968824e+02
storage_volume_X_X_0_6 1.2000000000603100e+02
storage_volume_X_X_0_7 1.2000000004920574e+02
storage_volume_X_X_0_8 1.5499999999928917e+02
storage_volume_X_X_0_9 1.5499999999928917e+02
storage_volume_X_X_1_0 5.4999999996735909e+01
storage_volume_X_X_1_1 5.5000000006134208e+01
storage_volume_X_X_1_2 8.0749912981575775e+01
storage_volume_X_X_1_3 6.5000000035886217e+01
storage_volume_X_X_1_4 6.5000000166087816e+01
storage_volume_X_X_1_5 6.9425220059887678e+01
storage_volume_X_X_1_6 7.5000000002277488e+01
storage_volume_X_X_1_7 7.5000000036123353e+01
storage_volume_X_X_1_8 7.8294511254578694e+01
storage_volume_X_X_1_9 7.8294511255403265e+01
storage_volume_X_X_2_0 4.4999999987309053e+01
storage_volume_X_X_2_1 4.1926782046175504e-09
storage_volume_X_X_2_2 1.6016670656426868e-08
storage_volume_X_X_2_3 6.0000000027203072e+01
storage_volume_X_X_2_4 1.5000000160467650e+01
storage_volume_X_X_2_5 7.3772099540292402e-09
storage_volume_X_X_2_6 7.4999999993876870e+01
storage_volume_X_X_2_7 3.0000000032777962e+01
storage_volume_X_X_2_8 2.5308892759312585e-08
storage_volume_X_X_2_9 2.5308438011961698e-08
b_v_X_0_0_0 4.1515835438850625e-09
b_v_X_0_0_1 9.9999999995325027e+01
b_v_X_0_1_0 4.1515835438850625e-09
b_v_X_0_1_1 9.9999999980164759e+01
b_v_X_0_2_0 4.1515835438850625e-09
b_v_X_0_2_1 6.4999999995797339e+01
b_v_X_0_3_0 4.1515835438850625e-09
b_v_X_0_3_1 9.9999999956196845e+01
b_v_X_0_4_0 4.1515835438850625e-09
b_v_X_0_4_1 9.9999999812993480e+01
b_v_X_0_5_0 4.1515835438850625e-09
b_v_X_0_5_1 6.4999999996160184e+01
b_v_X_0_6_0 4.1515835438850625e-09
b_v_X_0_6_1 9.9999999989817425e+01
b_v_X_0_7_0 4.1515835438850625e-09
b_v_X_0_7_1 9.9999999946642674e+01
b_v_X_0_8_0 4.1515835438850625e-09
b_v_X_0_8_1 6.4999999996559225e+01
b_v_X_0_9_0 4.1515835438850625e-09
b_v_X_0_9_1 6.4999999996559225e+01
b_v_X_1_0_0 6.5000000002558053e+01
b_v_X_1_0_1 1.2293633862300673e-09
b_v_X_1_1_0 6.5000000002558053e+01
b_v_X_1_1_1 6.9913143178124135e-09
b_v_X_1_2_0 6.5000000002558053e+01
b_v_X_1_2_1 9.2500870159172184e+00
b_v_X_1_3_0 6.5000000002558053e+01
b_v_X_1_3_1 1.2074902630267550e-09
b_v_X_1_4_0 6.5000000002558053e+01
b_v_X_1_4_1 1.4129838932555776e-08
b_v_X_1_5_0 6.5000000002558053e+01
b_v_X_1_5_1 3.0574779937242504e+01
b_v_X_1_6_0 6.5000000002558053e+01
b_v_X_1_6_1 1.1951134751618109e-09
b_v_X_1_7_0 6.5000000002558053e+01
b_v_X_1_7_1 1.0524237590414027e-08
b_v_X_1_8_0 6.5000000002558053e+01
b_v_X_1_8_1 3.1705488742150575e+01
b_v_X_1_9_0 6.5000000002558053e+01
b_v_X_1_9_1 3.1705488741325887e+01
b_v_X_2_0_0 1.3025090458524167e+01
b_v_X_2_0_1 6.9749095509026962e+00
b_v_X_2_1_0 1.3025090458524167e+01
b_v_X_2_1_1 5.1974909543417368e+01
b_v_X_2_2_0 1.3025090458524167e+01
b_v_X_2_2_1 7.7724822507034929e+01
b_v_X_2_3_0 1.3025090458524167e+01
b_v_X_2_3_1 6.9749095501589995e+00
b_v_X_2_4_0 1.3025090458524167e+01
b_v_X_2_4_1 5.1974909547096033e+01
b_v_X_2_5_0 1.3025090458524167e+01
b_v_X_2_5_1 7.1400129593986307e+01
b_v_X_2_6_0 1.3025090458524167e+01
b_v_X_2_6_1 6.9749095498764486e+00
b_v_X_2_7_0 1.3025090458524167e+01
b_v_X_2_7_1 5.1974909544821244e+01
b_v_X_2_8_0 1.3025090458524167e+01
b_v_X_2_8_1 8.5269420770745683e+01
b_v_X_2_9_0 1.3025090458524167e+01
b_v_X_2_9_1 8.5269420771570651e+01
p_c_0_0_0_0 48
p_c_0_0_0_1 48
p_c_0_0_1_0 51
p_c_0_0_1_1 51
p_c_0_1_0_0 48
p_c_0_1_0_1 48
p_c_0_1_1_0 51
p_c_0_1_1_1 51
p_c_0_2_0_0 48
p_c_0_2_0_1 48
p_c_0_2_1_0 51
p_c_0_2_1_1 51
p_c_0_3_0_0 48
p_c_0_3_0_1 48
p_c_0_3_1_0 51
p_c_0_3_1_1 51
p_c_0_4_0_0 48
p_c_0_4_0_1 48
p_c_0_4_1_0 51
p_c_0_4_1_1 51
p_c_0_5_0_0 48
p_c_0_5_0_1 48
p_c_0_5_1_0 51
p_c_0_5_1_1 51
p_c_0_6_0_0 48
p_c_0_6_0_1 48
p_c_0_6_1_0 51
p_c_0_6_1_1 51
p_c_0_7_0_0 48
p_c_0_7_0_1 48
p_c_0_7_1_0 51
p_c_0_7_1_1 51
p_c_0_8_0_0 48
p_c_0_8_0_1 48
p_c_0_8_1_0 51
p_c_0_8_1_1 51
p_c_0_9_0_0 48
p_c_0_9_0_1 48
p_c_0_9_1_0 51
p_c_0_9_1_1 51
p_c_1_0_0_0 51
p_c_1_0_0_1 51
p_c_1_0_1_0 35
p_c_1_0_1_1 35
p_c_1_1_0_0 51
p_c_1_1_0_1 51
p_c_1_1_1_0 47
p_c_1_1_1_1 47
p_c_1_2_0_0 51
p_c_1_2_0_1 51
p_c_1_2_1_0 56
p_c_1_2_1_1 56
p_c_1_3_0_0 51
p_c_1_3_0_1 51
p_c_1_3_1_0 35
p_c_1_3_1_1 35
p_c_1_4_0_0 51
p_c_1_4_0_1 51
p_c_1_4_1_0 47
p_c_1_4_1_1 47
p_c_1_5_0_0 51
p_c_1_5_0_1 51
p_c_1_5_1_0 56
p_c_1_5_1_1 56
p_c_1_6_0_0 51
p_c_1_6_0_1 51
p_c_1_6_1_0 35
p_c_1_6_1_1 35
p_c_1_7_0_0 51
p_c_1_7_0_1 51
p_c_1_7_1_0 47
p_c_1_7_1_1 47
p_c_1_8_0_0 51
p_c_1_8_0_1 51
p_c_1_8_1_0 56
p_c_1_8_1_1 56
p_c_1_9_0_0 51
p_c_1_9_0_1 51
p_c_1_9_1_0 56
p_c_1_9_1_1 56
p_c_2_0_0_0 35
p_c_2_0_0_1 35
p_c_2_0_1_0 35
p_c_2_0_1_1 35
p_c_2_1_0_0 47
p_c_2_1_0_1 47
p_c_2_1_1_0 47
p_c_2_1_1_1 47
p_c_2_2_0_0 56
p_c_2_2_0_1 56
p_c_2_2_1_0 56
p_c_2_2_1_1 56
p_c_2_3_0_0 35
p_c_2_3_0_1 35
p_c_2_3_1_0 35
p_c_2_3_1_1 35
p_c_2_4_0_0 47
p_c_2_4_0_1 47
p_c_2_4_1_0 47
p_c_2_4_1_1 47
p_c_2_5_0_0 56
p_c_2_5_0_1 56
p_c_2_5_1_0 56
p_c_2_5_1_1 56
p_c_2_6_0_0 35
p_c_2_6_0_1 35
p_c_2_6_1_0 35
p_c_2_6_1_1 35
p_c_2_7_0_0 47
p_c_2_7_0_1 47
p_c_2_7_1_0 47
p_c_2_7_1_1 47
p_c_2_8_0_0 56
p_c_2_8_0_1 56
p_c_2_8_1_0 56
p_c_2_8_1_1 56
p_c_2_9_0_0 56
p_c_2_9_0_1 56
p_c_2_9_1_0 56
p_c_2_9_1_1 56
v_c_0_0_0_0 4.1515835438850625e-09
v_c_0_0_0_1 0
v_c_0_0_1_0 0
v_c_0_0_1_1 9.9999999995325027e+01
v_c_0_1_0_0 4.1515835438850625e-09
v_c_0_1_0_1 0
v_c_0_1_1_0 0
v_c_0_1_1_1 9.9999999980164759e+01
v_c_0_2_0_0 4.1515835438859095e-09
v_c_0_2_0_1 0
v_c_0_2_1_0 0
v_c_0_2_1_1 6.4999999995797339e+01
v_c_0_3_0_0 4.1515835438850625e-09
v_c_0_3_0_1 0
v_c_0_3_1_0 0
v_c_0_3_1_1 9.9999999956196845e+01
v_c_0_4_0_0 4.1515835438850625e-09
v_c_0_4_0_1 0
v_c_0_4_1_0 0
v_c_0_4_1_1 9.9999999812993480e+01
v_c_0_5_0_0 4.1515835438850625e-09
v_c_0_5_0_1 0
v_c_0_5_1_0 0
v_c_0_5_1_1 6.4999999996160184e+01
v_c_0_6_0_0 4.1515835438850625e-09
v_c_0_6_0_1 0
v_c_0_6_1_0 0
v_c_0_6_1_1 9.9999999989817425e+01
v_c_0_7_0_0 4.1515835438850625e-09
v_c_0_7_0_1 0
v_c_0_7_1_0 0
v_c_0_7_1_1 9.9999999946642674e+01
v_c_0_8_0_0 4.1515835438850625e-09
v_c_0_8_0_1 0
v_c_0_8_1_0 0
v_c_0_8_1_1 6.4999999996559225e+01
v_c_0_9_0_0 4.1515835438859095e-09
v_c_0_9_0_1 0
v_c_0_9_1_0 0
v_c_0_9_1_1 6.4999999996559225e+01
v_c_1_0_0_0 6.5000000002558053e+01
v_c_1_0_0_1 0
v_c_1_0_1_0 0
v_c_1_0_1_1 1.2293633862300673e-09
v_c_1_1_0_0 6.5000000002558053e+01
v_c_1_1_0_1 0
v_c_1_1_1_0 0
v_c_1_1_1_1 6.9913143178124135e-09
v_c_1_2_0_0 6.5000000002558068e+01
v_c_1_2_0_1 0
v_c_1_2_1_0 0
v_c_1_2_1_1 9.2500870159172184e+00
v_c_1_3_0_0 6.5000000002557812e+01
v_c_1_3_0_1 0
v_c_1_3_1_0 0
v_c_1_3_1_1 1.2074902630267550e-09
v_c_1_4_0_0 6.5000000002557599e+01
v_c_1_4_0_1 0
v_c_1_4_1_0 0
v_c_1_4_1_1 1.4129838932555776e-08
v_c_1_5_0_0 6.5000000002558025e+01
v_c_1_5_0_1 0
v_c_1_5_1_0 0
v_c_1_5_1_1 3.0574779937242504e+01
v_c_1_6_0_0 6.5000000002558210e+01
v_c_1_6_0_1 0
v_c_1_6_1_0 0
v_c_1_6_1_1 1.1951134751618109e-09
v_c_1_7_0_0 6.5000000002558153e+01
v_c_1_7_0_1 0
v_c_1_7_1_0 0
v_c_1_7_1_1 1.0524237590414027e-08
v_c_1_8_0_0 6.5000000002557925e+01
v_c_1_8_0_1 0
v_c_1_8_1_0 0
v_c_1_8_1_1 3.1705488742150575e+01
v_c_1_9_0_0 6.5000000002558039e+01
v_c_1_9_0_1 0
v_c_1_9_1_0 0
v_c_1_9_1_1 3.1705488741325887e+01
v_c_2_0_0_0 1.3025090458524167e+01
v_c_2_0_0_1 0
v_c_2_0_1_0 0
v_c_2_0_1_1 6.9749095509026962e+00
v_c_2_1_0_0 1.3025090458524152e+01
v_c_2_1_0_1 0
v_c_2_1_1_0 0
v_c_2_1_1_1 5.1974909543417368e+01
v_c_2_2_0_0 1.3025090458524161e+01
v_c_2_2_0_1 0
v_c_2_2_1_0 0
v_c_2_2_1_1 7.7724822507034929e+01
v_c_2_3_0_0 1.3025090458524147e+01
v_c_2_3_0_1 0
v_c_2_3_1_0 0
v_c_2_3_1_1 6.9749095501589995e+00
v_c_2_4_0_0 1.3025090458524151e+01
v_c_2_4_0_1 0
v_c_2_4_1_0 0
v_c_2_4_1_1 5.1974909547096033e+01
v_c_2_5_0_0 1.3025090458524161e+01
v_c_2_5_0_1 0
v_c_2_5_1_0 0
v_c_2_5_1_1 7.1400129593986307e+01
v_c_2_6_0_0 1.3025090458524168e+01
v_c_2_6_0_1 0
v_c_2_6_1_0 0
v_c_2_6_1_1 6.9749095498764486e+00
v_c_2_7_0_0 1.3025090458524147e+01
v_c_2_7_0_1 0
v_c_2_7_1_0 0
v_c_2_7_1_1 5.1974909544821244e+01
v_c_2_8_0_0 1.3025090458524151e+01
v_c_2_8_0_1 0
v_c_2_8_1_0 0
v_c_2_8_1_1 8.5269420770745683e+01
v_c_2_9_0_0 1.3025090458524149e+01
v_c_2_9_0_1 0
v_c_2_9_1_0 0
v_c_2_9_1_1 8.5269420771570651e+01
pi_c_0_0_0_0 1.9927601010649655e-07
pi_c_0_0_0_1 0
pi_c_0_0_1_0 0
pi_c_0_0_1_1 5.0999999997615760e+03
pi_c_0_1_0_0 1.9927601010649655e-07
pi_c_0_1_0_1 0
pi_c_0_1_1_0 0
pi_c_0_1_1_1 5.0999999989884027e+03
pi_c_0_2_0_0 1.9927601010649655e-07
pi_c_0_2_0_1 0
pi_c_0_2_1_0 0
pi_c_0_2_1_1 3.3149999997856644e+03
pi_c_0_3_0_0 1.9927601010649655e-07
pi_c_0_3_0_1 0
pi_c_0_3_1_0 0
pi_c_0_3_1_1 5.0999999977660400e+03
pi_c_0_4_0_0 1.9927601010649655e-07
pi_c_0_4_0_1 0
pi_c_0_4_1_0 0
pi_c_0_4_1_1 5.0999999904626684e+03
pi_c_0_5_0_0 1.9927601010646945e-07
pi_c_0_5_0_1 0
pi_c_0_5_1_0 0
pi_c_0_5_1_1 3.3149999998041694e+03
pi_c_0_6_0_0 1.9927601010646945e-07
pi_c_0_6_0_1 0
pi_c_0_6_1_0 0
pi_c_0_6_1_1 5.0999999994806885e+03
pi_c_0_7_0_0 1.9927601010649655e-07
pi_c_0_7_0_1 0
pi_c_0_7_1_0 0
pi_c_0_7_1_1 5.0999999972787764e+03
pi_c_0_8_0_0 1.9927601010652366e-07
pi_c_0_8_0_1 0
pi_c_0_8_1_0 0
pi_c_0_8_1_1 3.3149999998245212e+03
pi_c_0_9_0_0 1.9927601010649655e-07
pi_c_0_9_0_1 0
pi_c_0_9_1_0 0
pi_c_0_9_1_1 3.3149999998245212e+03
pi_c_1_0_0_0 3.3150000001304597e+03
pi_c_1_0_0_1 0
pi_c_1_0_1_0 0
pi_c_1_0_1_1 4.3027718518045578e-08
pi_c_1_1_0_0 3.3150000001304611e+03
pi_c_1_1_0_1 0
pi_c_1_1_1_0 0
pi_c_1_1_1_1 3.2859177293714532e-07
pi_c_1_2_0_0 3.3150000001304616e+03
pi_c_1_2_0_1 0
pi_c_1_2_1_0 0
pi_c_1_2_1_1 5.1800487289136447e+02
pi_c_1_3_0_0 3.3150000001304529e+03
pi_c_1_3_0_1 0
pi_c_1_3_1_0 0
pi_c_1_3_1_1 4.2262159205948497e-08
pi_c_1_4_0_0 3.3150000001304397e+03
pi_c_1_4_0_1 0
pi_c_1_4_1_0 0
pi_c_1_4_1_1 6.6410242983007232e-07
pi_c_1_5_0_0 3.3150000001304597e+03
pi_c_1_5_0_1 0
pi_c_1_5_1_0 0
pi_c_1_5_1_1 1.7121876764855804e+03
pi_c_1_6_0_0 3.3150000001304597e+03
pi_c_1_6_0_1 0
pi_c_1_6_1_0 0
pi_c_1_6_1_1 4.1828971630667193e-08
pi_c_1_7_0_0 3.3150000001304629e+03
pi_c_1_7_0_1 0
pi_c_1_7_1_0 0
pi_c_1_7_1_1 4.9463916674955585e-07
pi_c_1_8_0_0 3.3150000001304634e+03
pi_c_1_8_0_1 0
pi_c_1_8_1_0 0
pi_c_1_8_1_1 1.7755073695604312e+03
pi_c_1_9_0_0 3.3150000001304611e+03
pi_c_1_9_0_1 0
pi_c_1_9_1_0 0
pi_c_1_9_1_1 1.7755073695142539e+03
pi_c_2_0_0_0 4.5587816604834495e+02
pi_c_2_0_0_1 0
pi_c_2_0_1_0 0
pi_c_2_0_1_1 2.4412183428159437e+02
pi_c_2_1_0_0 6.1217925155063494e+02
pi_c_2_1_0_1 0
pi_c_2_1_1_0 0
pi_c_2_1_1_1 2.4428207485406156e+03
pi_c_2_2_0_0 7.2940506567735281e+02
pi_c_2_2_0_1 0
pi_c_2_2_1_0 0
pi_c_2_2_1_1 4.3525900603939563e+03
pi_c_2_3_0_0 4.5587816604834501e+02
pi_c_2_3_0_1 0
pi_c_2_3_1_0 0
pi_c_2_3_1_1 2.4412183425556498e+02
pi_c_2_4_0_0 6.1217925155063506e+02
pi_c_2_4_0_1 0
pi_c_2_4_1_0 0
pi_c_2_4_1_1 2.4428207487135137e+03
pi_c_2_5_0_0 7.2940506567735315e+02
pi_c_2_5_0_1 0
pi_c_2_5_1_0 0
pi_c_2_5_1_1 3.9984072572632331e+03
pi_c_2_6_0_0 4.5587816604834666e+02
pi_c_2_6_0_1 0
pi_c_2_6_1_0 0
pi_c_2_6_1_1 2.4412183424567576e+02
pi_c_2_7_0_0 6.1217925155063483e+02
pi_c_2_7_0_1 0
pi_c_2_7_1_0 0
pi_c_2_7_1_1 2.4428207486065990e+03
pi_c_2_8_0_0 7.2940506567735201e+02
pi_c_2_8_0_1 0
pi_c_2_8_1_0 0
pi_c_2_8_1_1 4.7750875631617555e+03
pi_c_2_9_0_0 7.2940506567735281e+02
pi_c_2_9_0_1 0
pi_c_2_9_1_0 0
pi_c_2_9_1_1 4.7750875632079587e+03
